0 0 2 0
1 0 1 0
2 0 2 1
3 0 1 8
1 1 2 8
4 0 2 13
2 1 3 6
5 0 1 13
3 1 0 13
1 2 4 13
5 1 3 16
4 1 1 22
2 2 5 10
4 2 4 25
3 2 2 22
0 1 0 18
2 3 0 21
0 2 1 25
3 3 3 27
2 4 1 31
5 2 5 19
1 3 5 28
5 3 0 30
1 4 0 40
4 3 5 38
3 4 4 30
0 3 3 31
2 5 4 38
4 4 0 50
0 4 5 42
1 5 3 50
3 5 5 45
5 4 4 45
0 5 4 49
4 5 3 54
5 5 2 49

